cases/pglib-opf/pglib_opf_case200_tamu.m
ipopt
DCP
[warn | PowerModels]: no active generators found at bus 168, updating to bus type from 2 to 1
[warn | PowerModels]: no active generators found at bus 197, updating to bus type from 2 to 1
[warn | PowerModels]: no active generators found at bus 92, updating to bus type from 2 to 1
[warn | PowerModels]: no active generators found at bus 161, updating to bus type from 2 to 1
[warn | PowerModels]: no active generators found at bus 165, updating to bus type from 2 to 1
[warn | PowerModels]: no active generators found at bus 196, updating to bus type from 2 to 1
[warn | PowerModels]: no active generators found at bus 164, updating to bus type from 2 to 1
[warn | PowerModels]: no active generators found at bus 78, updating to bus type from 2 to 1
[warn | PowerModels]: no active generators found at bus 166, updating to bus type from 2 to 1
[warn | PowerModels]: no active generators found at bus 169, updating to bus type from 2 to 1
[warn | PowerModels]: no active generators found at bus 79, updating to bus type from 2 to 1
[info | PowerModels]: removing 3 cost terms from generator 24: Float64[]
[info | PowerModels]: removing 3 cost terms from generator 25: Float64[]
[info | PowerModels]: removing 3 cost terms from generator 23: Float64[]
[info | PowerModels]: removing 3 cost terms from generator 31: Float64[]
[info | PowerModels]: removing 1 cost terms from generator 47: [671.0, 1272.13]
[info | PowerModels]: removing 3 cost terms from generator 6: Float64[]
[info | PowerModels]: removing 3 cost terms from generator 22: Float64[]

******************************************************************************
This program contains Ipopt, a library for large-scale nonlinear optimization.
 Ipopt is released as open source code under the Eclipse Public License (EPL).
         For more information visit http://projects.coin-or.org/Ipopt
******************************************************************************

This is Ipopt version 3.13.2, running with linear solver mumps.
NOTE: Other linear solvers might be more efficient (see Ipopt documentation).

Number of nonzeros in equality constraint Jacobian...:     1258
Number of nonzeros in inequality constraint Jacobian.:      980
Number of nonzeros in Lagrangian Hessian.............:       31

Total number of variables............................:      477
                     variables with only lower bounds:        0
                variables with lower and upper bounds:      277
                     variables with only upper bounds:        0
Total number of equality constraints.................:      446
Total number of inequality constraints...............:      490
        inequality constraints with only lower bounds:      245
   inequality constraints with lower and upper bounds:        0
        inequality constraints with only upper bounds:      245

iter    objective    inf_pr   inf_du lg(mu)  ||d||  lg(rg) alpha_du alpha_pr  ls
   0  2.6329020e+04 1.72e+00 1.93e+01  -1.0 0.00e+00    -  0.00e+00 0.00e+00   0
   1  2.6562961e+04 1.59e+00 1.95e+01  -1.0 2.40e+00    -  2.83e-02 7.91e-02h  1
   2  2.6407013e+04 1.52e+00 1.87e+01  -1.0 6.98e+00    -  1.67e-01 4.24e-02f  1
   3  2.6879115e+04 9.49e-01 1.16e+01  -1.0 3.09e+00    -  2.92e-01 3.76e-01h  1
   4  2.7359116e+04 2.27e-01 2.82e+00  -1.0 2.05e+00    -  8.26e-01 7.61e-01h  1
   5  2.7553185e+04 7.11e-15 1.00e-06  -1.0 4.56e-01    -  1.00e+00 1.00e+00h  1
   6  2.7494971e+04 7.11e-15 2.00e-07  -1.7 4.49e-02    -  1.00e+00 1.00e+00f  1
   7  2.7479817e+04 7.11e-15 4.94e-04  -3.8 1.16e-02    -  9.89e-01 1.00e+00f  1
   8  2.7479644e+04 7.11e-15 1.84e-11  -5.7 1.30e-04    -  1.00e+00 1.00e+00f  1
   9  2.7479643e+04 7.11e-15 2.51e-14  -8.6 1.02e-06    -  1.00e+00 1.00e+00f  1

Number of Iterations....: 9

                                   (scaled)                 (unscaled)
Objective...............:   1.1847737729944647e+03    2.7479642890833617e+04
Dual infeasibility......:   2.5059035640133008e-14    5.8121927263724502e-13
Constraint violation....:   3.5527136788005009e-15    7.1054273576010019e-15
Complementarity.........:   2.5088103569896438e-09    5.8189347420017805e-08
Overall NLP error.......:   2.5088103569896438e-09    5.8189347420017805e-08


Number of objective function evaluations             = 10
Number of objective gradient evaluations             = 10
Number of equality constraint evaluations            = 10
Number of inequality constraint evaluations          = 10
Number of equality constraint Jacobian evaluations   = 1
Number of inequality constraint Jacobian evaluations = 1
Number of Lagrangian Hessian evaluations             = 1
Total CPU secs in IPOPT (w/o function evaluations)   =      0.303
Total CPU secs in NLP function evaluations           =      0.209

EXIT: Optimal Solution Found.
Time to Solution........:1.195781946182251
